s td 65 6 70
b 1 1 2 15
b 2 13 14 28
b 3 43 57 58
b 4 56 69 70
b 5 2 3 15 16
b 6 12 13 27 28
b 7 3 4 18 33 48 63
b 8 4 5 18 33 48 63
b 9 5 18 20 33 48 63
b 10 5 20 33 35 48 63
b 11 5 20 35 48 50 63
b 12 5 20 35 50 63 65
b 13 5 7 20 35 50 65
b 14 5 6 7 20
b 15 7 20 22 35 50 65
b 16 7 22 35 37 50 65
b 17 7 22 37 50 52 65
b 18 7 22 37 52 65 67
b 19 7 9 22 37 52 67
b 20 7 8 9 22
b 21 9 22 24 37 52 67
b 22 9 24 37 39 52 67
b 23 9 24 39 52 54 67
b 24 9 11 24 39 54 67
b 25 9 10 11 24
b 26 11 24 26 39 54 67
b 27 11 26 39 41 54 67
b 28 11 26 41 42 54 67
b 29 11 26 27 41 42
b 30 11 12 26 27 42
b 31 12 27 28 42
b 32 41 42 54 67 69
b 33 41 42 54 55 69
b 34 54 67 68 69
b 35 26 39 40 41 54
b 36 11 24 25 26 39
b 37 39 52 53 54 67
b 38 24 37 38 39 52
b 39 9 22 23 24 37
b 40 52 65 66 67
b 41 37 50 51 52 65
b 42 22 35 36 37 50
b 43 7 20 21 22 35
b 44 50 63 64 65
b 45 35 48 49 50 63
b 46 20 33 34 35 48
b 47 5 18 19 20 33
b 48 3 18 33 48 61 63
b 49 3 18 33 46 48 61
b 50 3 18 33 46 59 61
b 51 3 18 31 33 46 59
b 52 3 18 31 44 46 59
b 53 3 18 29 31 44 59
b 54 3 16 18 29 31 44
b 55 3 15 16 29
b 56 3 16 17 18 31
b 57 16 29 30 31 44
b 58 29 44 58 59
b 59 31 44 45 46 59
b 60 18 31 32 33 46
b 61 46 59 60 61
b 62 33 46 47 48 61
b 63 48 61 62 63
b 64 29 43 44 58
b 65 42 55 56 69
1 5
2 6
3 64
4 65
5 55
6 31
7 8
7 48
8 9
9 10
9 47
10 11
10 46
11 12
11 45
12 13
12 44
13 14
13 15
15 16
15 43
16 17
16 42
17 18
17 41
18 19
18 40
19 20
19 21
21 22
21 39
22 23
22 38
23 24
23 37
24 25
24 26
26 27
26 36
27 28
27 35
28 29
28 32
29 30
30 31
32 33
32 34
33 65
48 49
48 63
49 50
49 62
50 51
50 61
51 52
51 60
52 53
52 59
53 54
53 58
54 55
54 56
54 57
58 64
